(set-option :produce-models true)
(set-logic QF_LIA)
(declare-fun Diamond () Int)
(declare-fun Triangle () Int)
(declare-fun Circle () Int)
(declare-fun Pentagon () Int)
(declare-fun Rectangle () Int)
(declare-fun Diamond () Int)
(declare-fun Pentagon () Int)
(declare-fun Rectangle () Int)
(assert (let ((.def_0 (+ Pentagon Diamond))) (let ((.def_1 (* 3 Rectangle))) (let ((.def_2 (= .def_1 .def_0))) (let ((.def_3 (* Triangle 2))) (let ((.def_4 (= .def_3 100))) (let ((.def_5 (+ Circle Diamond))) (let ((.def_6 (= Pentagon .def_5))) (let ((.def_7 (* 2 Rectangle))) (let ((.def_8 (+ Pentagon .def_7))) (let ((.def_9 (+ Diamond .def_3 Circle))) (let ((.def_10 (= .def_9 .def_8))) (let ((.def_11 (and .def_10 .def_6 .def_4 .def_2))) .def_11)))))))))))))
(check-sat)
(get-model)
(exit)